problems/Promedus_21/Promedus_21.gr
p tw 473 819
171 123
473 77
473 92
77 92
472 154
472 473
154 473
471 1
471 472
1 472
470 130
470 471
130 471
469 113
469 470
113 470
468 29
468 469
29 469
467 146
467 468
146 468
466 134
466 467
134 467
465 83
465 466
83 466
464 79
464 465
79 465
463 73
463 464
73 464
462 158
462 463
158 463
461 6
461 462
6 462
460 32
460 461
32 461
459 199
459 460
199 460
458 186
458 459
186 459
457 138
457 458
138 458
456 21
456 457
21 457
455 111
455 456
111 456
454 172
454 455
172 455
453 58
453 454
58 454
452 190
452 453
190 453
451 137
451 452
137 452
450 37
450 451
37 451
449 116
449 450
116 450
448 192
448 449
192 449
447 5
447 448
5 448
446 68
446 447
68 447
445 54
445 446
54 446
444 67
444 445
67 445
443 124
443 444
124 444
442 112
442 443
112 443
441 128
441 442
128 442
440 45
440 441
45 441
439 15
439 440
15 440
438 126
438 439
126 439
437 122
437 438
122 438
436 169
436 437
169 437
435 136
435 436
136 436
434 184
434 435
184 435
433 108
433 434
108 434
432 65
432 433
65 433
431 12
431 432
12 432
430 164
430 431
164 431
429 139
429 430
139 430
428 85
428 429
85 429
427 189
427 428
189 428
426 183
426 427
183 427
425 103
425 426
103 426
424 99
424 425
99 425
423 114
423 424
114 424
422 166
422 423
166 423
421 95
421 422
95 422
420 71
420 421
71 421
419 155
419 420
155 420
418 150
418 419
150 419
417 151
417 418
151 418
416 9
416 417
9 417
415 7
415 416
7 416
414 4
414 415
4 415
413 36
413 414
36 414
412 63
412 413
63 413
411 170
411 412
170 412
410 129
410 411
129 411
409 105
409 410
105 410
408 115
408 409
115 409
407 195
407 408
195 408
406 121
406 407
121 407
405 88
405 406
88 406
404 175
404 405
175 405
403 84
403 404
84 404
402 119
402 403
119 403
401 24
401 402
24 402
400 127
400 401
127 401
399 157
399 400
157 400
398 106
398 399
106 399
31 398
397 154
397 148
154 148
396 50
396 397
50 397
395 64
395 396
64 396
394 177
394 395
177 395
393 83
393 394
83 394
392 28
392 393
28 393
391 33
391 392
33 392
390 199
390 391
199 391
389 66
389 390
66 390
388 190
388 389
190 389
387 131
387 388
131 388
386 107
386 387
107 387
385 80
385 386
80 386
384 25
384 385
25 385
383 97
383 384
97 384
382 89
382 383
89 383
381 19
381 382
19 382
380 149
380 381
149 381
379 169
379 380
169 380
378 184
378 379
184 379
377 164
377 378
164 378
376 139
376 377
139 377
375 103
375 376
103 376
374 183
374 375
183 375
373 189
373 374
189 374
372 173
372 373
173 373
371 56
371 372
56 372
370 179
370 371
179 371
369 166
369 370
166 370
368 69
368 369
69 369
367 81
367 368
81 368
366 72
366 367
72 367
365 170
365 366
170 366
364 63
364 365
63 365
363 39
363 364
39 364
362 11
362 363
11 363
361 75
361 362
75 362
360 101
360 361
101 361
359 167
359 360
167 360
358 76
358 359
76 359
357 176
357 358
176 358
356 141
356 357
141 357
355 27
355 356
27 356
354 53
354 355
53 355
353 146
353 354
146 354
352 78
352 353
78 353
351 197
351 352
197 352
350 61
350 351
61 351
349 55
349 350
55 350
348 158
348 349
158 349
347 79
347 348
79 348
346 34
346 347
34 347
345 186
345 346
186 346
344 109
344 345
109 345
343 180
343 344
180 344
342 58
342 343
58 343
341 59
341 342
59 342
340 116
340 341
116 341
339 54
339 340
54 340
338 68
338 339
68 339
337 8
337 338
8 338
336 98
336 337
98 337
335 46
335 336
46 336
334 45
334 335
45 335
333 191
333 334
191 334
332 163
332 333
163 333
331 159
331 332
159 332
330 135
330 331
135 331
329 16
329 330
16 330
328 43
328 329
43 329
327 3
327 328
3 328
326 136
326 327
136 327
325 41
325 326
41 326
324 100
324 325
100 325
323 108
323 324
108 324
322 52
322 323
52 323
321 65
321 322
65 322
320 140
320 321
140 321
319 14
319 320
14 320
318 70
318 319
70 319
317 114
317 318
114 318
316 87
316 317
87 317
315 95
315 316
95 316
314 161
314 315
161 315
313 182
313 314
182 314
312 150
312 313
150 313
311 151
311 312
151 312
310 62
310 311
62 311
309 7
309 310
7 310
308 120
308 309
120 309
307 48
307 308
48 308
306 42
306 307
42 307
305 121
305 306
121 306
304 118
304 305
118 305
303 88
303 304
88 304
302 84
302 303
84 303
301 188
301 302
188 302
300 74
300 301
74 301
299 157
299 300
157 300
298 133
298 299
133 299
297 92
297 298
92 298
296 96
296 297
96 297
295 77
295 296
77 296
294 40
294 295
40 295
293 1
293 294
1 294
292 130
292 293
130 293
291 187
291 292
187 292
290 29
290 291
29 291
289 47
289 290
47 290
288 26
288 289
26 289
287 134
287 288
134 288
286 185
286 287
185 287
285 6
285 286
6 286
284 32
284 285
32 285
283 156
283 284
156 284
282 193
282 283
193 283
281 21
281 282
21 282
280 172
280 281
172 281
279 37
279 280
37 280
278 5
278 279
5 279
277 192
277 278
192 278
276 117
276 277
117 277
275 124
275 276
124 276
274 67
274 275
67 275
273 112
273 274
112 274
272 147
272 273
147 273
271 49
271 272
49 272
270 90
270 271
90 271
269 174
269 270
174 270
268 145
268 269
145 269
267 178
267 268
178 268
266 12
266 267
12 267
265 51
265 266
51 266
264 86
264 265
86 265
263 142
263 264
142 264
262 194
262 263
194 263
261 125
261 262
125 262
260 23
260 261
23 261
259 93
259 260
93 260
258 162
258 259
162 259
257 71
257 258
71 258
256 110
256 257
110 257
255 144
255 256
144 256
254 132
254 255
132 255
253 129
253 254
129 254
252 105
252 253
105 253
251 102
251 252
102 252
250 115
250 251
115 251
249 91
249 250
91 250
248 57
248 249
57 249
247 195
247 248
195 248
246 143
246 247
143 247
245 175
245 246
175 246
244 24
244 245
24 245
243 153
243 244
153 244
242 82
242 243
82 243
241 165
241 242
165 242
240 168
240 241
168 241
239 94
239 240
94 240
238 113
238 239
113 239
237 201
237 238
201 238
236 152
236 237
152 237
235 2
235 236
2 236
234 17
234 235
17 235
233 22
233 234
22 234
232 20
232 233
20 233
231 73
231 232
73 232
230 138
230 231
138 231
229 111
229 230
111 230
228 181
228 229
181 229
227 137
227 228
137 228
226 13
226 227
13 227
225 128
225 226
128 226
224 196
224 225
196 225
223 160
223 224
160 224
222 15
222 223
15 223
221 126
221 222
126 222
220 122
220 221
122 221
219 104
219 220
104 220
218 85
218 219
85 219
217 198
217 218
198 218
216 99
216 217
99 217
215 60
215 216
60 216
214 38
214 215
38 215
213 35
213 214
35 214
212 30
212 213
30 213
211 155
211 212
155 212
210 10
210 211
10 211
209 9
209 210
9 210
208 4
208 209
4 209
207 36
207 208
36 208
206 18
206 207
18 207
205 119
205 206
119 206
204 127
204 205
127 205
203 44
203 204
44 204
202 106
202 203
106 203
200 202
