problems/Promedus_21/Promedus_21.td
c read Graph
c width = 470
c time = 6 ms
c width = 224
c time = 276 ms
c width = 12
c time = 368 ms
c width = 11
c time = 1644 ms
c width = 10
c time = 1690 ms
c width = 9
c time = 18182 ms
c width = 9
c time = 299899 ms
s td 396 10 473
b 1 31 398
b 2 200 202
b 3 154 394 472 473
b 4 127 204 205 399
b 5 119 205 206 207
b 6 9 209 210 211
b 7 155 211 212 216
b 8 99 216 217 218
b 9 85 218 219 220
b 10 15 222 223 225
b 11 128 225 226 227
b 12 137 227 228 229
b 13 73 231 232 238
b 14 113 238 239 244
b 15 175 245 246 247
b 16 195 247 248 250
b 17 115 250 251 252
b 18 129 253 254 257
b 19 71 257 258 266
b 20 12 266 267 273
b 21 124 275 276 277
b 22 21 281 282 284
b 23 6 285 286 287
b 24 134 287 288 290
b 25 29 290 291 292
b 26 1 293 294 295
b 27 77 295 296 297
b 28 92 297 298 299
b 29 157 299 300 302
b 30 88 303 304 305
b 31 121 305 306 309
b 32 7 309 310 311
b 33 150 312 313 315
b 34 95 315 316 317
b 35 114 317 318 321
b 36 65 321 322 323
b 37 108 323 324 326
b 38 136 326 327 334
b 39 45 334 335 338
b 40 116 340 341 342
b 41 58 342 343 345
b 42 186 345 346 347
b 43 158 348 349 353
b 44 146 353 354 364
b 45 170 365 366 369
b 46 166 369 370 373
b 47 169 379 380 388
b 48 190 388 389 390
b 49 199 390 391 393
b 50 77 92 295 297 473
b 51 92 295 297 299 473
b 52 6 73 113 285 299 347 364 393 461 462
b 53 6 73 113 285 287 299 347 364 393 462
b 54 73 113 287 299 347 353 364 393 462 465
b 55 73 347 348 353 462 464 465
b 56 79 347 348 464 465
b 57 73 348 353 462 463 464
b 58 158 348 353 462 463
b 59 113 287 299 353 364 393 394 465 466
b 60 83 393 394 465 466
b 61 113 287 292 299 353 364 394 466 469
b 62 113 292 299 394 469 470
b 63 292 295 299 394 470 472
b 64 295 299 394 472 473
b 65 292 293 295 470 471 472
b 66 1 293 295 471 472
b 67 130 292 293 470 471
b 68 287 292 353 364 466 467 468 469
b 69 287 290 292 466 467 468 469
b 70 134 287 290 466 467
b 71 29 290 292 468 469
b 72 146 353 364 467 468
b 73 73 113 231 244 285 299 347 364 393 461
b 74 231 244 284 285 299 347 364 393 460 461
b 75 231 244 284 299 347 364 390 393 459 460
b 76 186 231 244 284 299 345 347 364 390 459
b 77 186 231 244 284 299 345 364 390 458 459
b 78 230 231 244 284 299 345 364 390 457 458
b 79 230 244 281 284 299 345 364 390 456 457
b 80 111 229 230 244 281 299 345 364 390 456
b 81 111 229 244 281 299 345 364 390 455 456
b 82 229 244 280 281 299 345 364 390 454 455
b 83 229 244 280 299 342 345 364 390 453 454
b 84 229 244 280 299 342 364 388 390 452 453
b 85 137 227 229 244 280 299 342 364 388 452
b 86 137 227 244 280 299 342 364 388 451 452
b 87 227 244 279 280 299 342 364 388 450 451
b 88 227 244 279 299 340 342 364 388 449 450
b 89 227 244 277 279 299 340 364 388 447 449
b 90 227 244 277 299 338 340 364 388 445 447
b 91 227 244 274 277 299 338 364 388 443 445
b 92 227 244 273 274 299 338 364 388 442 443
b 93 225 227 244 273 299 338 364 388 441 442
b 94 225 244 273 299 334 338 364 388 440 441
b 95 220 225 244 273 299 334 364 388 437 440
b 96 220 244 273 299 334 364 379 388 436 437
b 97 136 220 244 273 299 326 334 364 379 436
b 98 136 220 244 273 299 326 364 379 435 436
b 99 184 220 244 273 299 326 364 378 379 435
b 100 184 220 244 273 299 326 364 378 434 435
b 101 220 244 273 299 321 326 364 378 432 434
b 102 220 244 266 273 299 321 364 378 431 432
b 103 220 244 266 299 321 364 377 378 430 431
b 104 220 244 266 299 321 364 376 377 429 430
b 105 218 220 244 266 299 321 364 376 428 429
b 106 218 244 266 299 321 364 373 376 425 428
b 107 216 218 244 266 299 321 364 373 424 425
b 108 99 216 218 424 425
b 109 216 244 266 299 317 321 364 373 423 424
b 110 216 244 266 299 317 364 369 373 422 423
b 111 166 369 373 422 423
b 112 216 244 266 299 315 317 364 369 421 422
b 113 216 244 257 266 299 315 364 369 420 421
b 114 71 257 266 420 421
b 115 95 315 317 421 422
b 116 114 317 321 423 424
b 117 373 375 376 425 426 428
b 118 103 375 376 425 426
b 119 373 374 375 426 427 428
b 120 189 373 374 427 428
b 121 183 374 375 426 427
b 122 85 218 220 428 429
b 123 139 376 377 429 430
b 124 164 377 378 430 431
b 125 12 266 273 431 432
b 126 321 323 326 432 433 434
b 127 108 323 326 433 434
b 128 65 321 323 432 433
b 129 169 379 388 436 437
b 130 220 222 225 437 439 440
b 131 15 222 225 439 440
b 132 220 221 222 437 438 439
b 133 126 221 222 438 439
b 134 122 220 221 437 438
b 135 45 334 338 440 441
b 136 128 225 227 441 442
b 137 112 273 274 442 443
b 138 274 275 277 443 444 445
b 139 67 274 275 444 445
b 140 124 275 277 443 444
b 141 338 339 340 445 446 447
b 142 68 338 339 446 447
b 143 54 339 340 445 446
b 144 277 278 279 447 448 449
b 145 5 278 279 447 448
b 146 192 277 278 448 449
b 147 116 340 342 449 450
b 148 37 279 280 450 451
b 149 190 388 390 452 453
b 150 58 342 345 453 454
b 151 172 280 281 454 455
b 152 21 281 284 456 457
b 153 138 230 231 457 458
b 154 199 390 393 459 460
b 155 32 284 285 460 461
b 156 73 113 231 238 244
b 157 364 365 369 411 412 413
b 158 207 216 244 257 299 309 315 411 413 420
b 159 216 244 257 299 315 364 369 411 413 420
b 160 364 369 411 413 420
b 161 207 244 245 257 299 303 309 404 411
b 162 207 244 245 299 303 401 402 404
b 163 24 244 245 401 402
b 164 207 299 302 303 401 402 403 404
b 165 205 207 299 302 401 402 403
b 166 119 205 207 402 403
b 167 157 205 299 302 401
b 168 84 302 303 403 404
b 169 245 247 257 303 309 404 407 411
b 170 245 247 303 309 404 405 407
b 171 175 245 247 404 405
b 172 303 305 309 405 406 407
b 173 121 305 309 406 407
b 174 88 303 305 405 406
b 175 247 253 257 407 410 411
b 176 129 253 257 410 411
b 177 247 252 253 407 409 410
b 178 105 252 253 409 410
b 179 247 250 252 407 408 409
b 180 115 250 252 408 409
b 181 195 247 250 407 408
b 182 63 364 365 412 413
b 183 170 365 369 411 412
b 184 207 211 216 309 315 413 419 420
b 185 155 211 216 419 420
b 186 207 209 211 309 315 413 415 419
b 187 207 208 209 413 414 415
b 188 36 207 208 413 414
b 189 4 208 209 414 415
b 190 209 211 309 311 315 415 417 419
b 191 311 312 315 417 418 419
b 192 150 312 315 418 419
b 193 151 311 312 417 418
b 194 209 211 309 311 415 416 417
b 195 7 309 311 415 416
b 196 9 209 211 416 417
b 197 157 205 399 400 401
b 198 127 205 399 400 401
b 199 28 392 393
b 200 391 392 393
b 201 33 391 392
b 202 66 389 390
b 203 131 387 388
b 204 380 387 388
b 205 107 386 387
b 206 380 386 387
b 207 80 385 386
b 208 380 385 386
b 209 25 384 385
b 210 380 384 385
b 211 97 383 384
b 212 380 383 384
b 213 89 382 383
b 214 380 382 383
b 215 19 381 382
b 216 380 381 382
b 217 149 380 381
b 218 173 372 373
b 219 370 372 373
b 220 56 371 372
b 221 370 371 372
b 222 179 370 371
b 223 69 368 369
b 224 366 368 369
b 225 81 367 368
b 226 366 367 368
b 227 72 366 367
b 228 39 363 364
b 229 354 363 364
b 230 11 362 363
b 231 354 362 363
b 232 75 361 362
b 233 354 361 362
b 234 101 360 361
b 235 354 360 361
b 236 167 359 360
b 237 354 359 360
b 238 76 358 359
b 239 354 358 359
b 240 176 357 358
b 241 354 357 358
b 242 141 356 357
b 243 354 356 357
b 244 27 355 356
b 245 354 355 356
b 246 53 354 355
b 247 78 352 353
b 248 349 352 353
b 249 197 351 352
b 250 349 351 352
b 251 61 350 351
b 252 349 350 351
b 253 55 349 350
b 254 34 346 347
b 255 109 344 345
b 256 343 344 345
b 257 180 343 344
b 258 59 341 342
b 259 8 337 338
b 260 335 337 338
b 261 98 336 337
b 262 335 336 337
b 263 46 335 336
b 264 191 333 334
b 265 327 333 334
b 266 163 332 333
b 267 327 332 333
b 268 159 331 332
b 269 327 331 332
b 270 135 330 331
b 271 327 330 331
b 272 16 329 330
b 273 327 329 330
b 274 43 328 329
b 275 327 328 329
b 276 3 327 328
b 277 41 325 326
b 278 324 325 326
b 279 100 324 325
b 280 52 322 323
b 281 140 320 321
b 282 318 320 321
b 283 14 319 320
b 284 318 319 320
b 285 70 318 319
b 286 87 316 317
b 287 161 314 315
b 288 313 314 315
b 289 182 313 314
b 290 62 310 311
b 291 120 308 309
b 292 306 308 309
b 293 48 307 308
b 294 306 307 308
b 295 42 306 307
b 296 118 304 305
b 297 188 301 302
b 298 300 301 302
b 299 74 300 301
b 300 133 298 299
b 301 96 296 297
b 302 40 294 295
b 303 187 291 292
b 304 47 289 290
b 305 288 289 290
b 306 26 288 289
b 307 185 286 287
b 308 156 283 284
b 309 282 283 284
b 310 193 282 283
b 311 117 276 277
b 312 147 272 273
b 313 267 272 273
b 314 49 271 272
b 315 267 271 272
b 316 90 270 271
b 317 267 270 271
b 318 174 269 270
b 319 267 269 270
b 320 145 268 269
b 321 267 268 269
b 322 178 267 268
b 323 51 265 266
b 324 258 265 266
b 325 86 264 265
b 326 258 264 265
b 327 142 263 264
b 328 258 263 264
b 329 194 262 263
b 330 258 262 263
b 331 125 261 262
b 332 258 261 262
b 333 23 260 261
b 334 258 260 261
b 335 93 259 260
b 336 258 259 260
b 337 162 258 259
b 338 110 256 257
b 339 254 256 257
b 340 144 255 256
b 341 254 255 256
b 342 132 254 255
b 343 102 251 252
b 344 91 249 250
b 345 248 249 250
b 346 57 248 249
b 347 143 246 247
b 348 153 243 244
b 349 239 243 244
b 350 82 242 243
b 351 239 242 243
b 352 165 241 242
b 353 239 241 242
b 354 168 240 241
b 355 239 240 241
b 356 94 239 240
b 357 201 237 238
b 358 232 237 238
b 359 152 236 237
b 360 232 236 237
b 361 2 235 236
b 362 232 235 236
b 363 17 234 235
b 364 232 234 235
b 365 22 233 234
b 366 232 233 234
b 367 20 232 233
b 368 181 228 229
b 369 13 226 227
b 370 196 224 225
b 371 223 224 225
b 372 160 223 224
b 373 104 219 220
b 374 198 217 218
b 375 60 215 216
b 376 212 215 216
b 377 38 214 215
b 378 212 214 215
b 379 35 213 214
b 380 212 213 214
b 381 30 212 213
b 382 10 210 211
b 383 18 206 207
b 384 106 204 399
b 385 50 396 397
b 386 154 396 397
b 387 148 154 397
b 388 64 395 396
b 389 154 395 396
b 390 154 394 395
b 391 177 394 395
b 392 106 398 399
b 393 44 203 204
b 394 106 203 204
b 395 106 202 203
b 396 123 171
1 392
1 396
2 395
3 390
3 64
4 384
4 198
5 383
5 166
6 382
6 196
7 376
7 185
8 374
8 108
9 373
9 122
10 371
10 131
11 369
11 136
12 368
12 85
13 358
13 156
14 349
14 156
15 347
15 171
16 345
16 181
17 343
17 180
18 339
18 176
19 324
19 114
20 313
20 125
21 311
21 140
22 309
22 152
23 307
23 53
24 305
24 70
25 303
25 71
26 302
26 66
27 301
27 50
28 300
28 51
29 298
29 167
30 296
30 174
31 292
31 173
32 290
32 195
33 288
33 192
34 286
34 115
35 282
35 116
36 280
36 128
37 278
37 127
38 265
38 97
39 260
39 135
40 258
40 147
41 256
41 150
42 254
42 76
43 248
43 58
44 229
44 72
45 224
45 183
46 219
46 111
47 204
47 129
48 202
48 149
49 200
49 154
50 51
51 64
52 73
52 53
53 54
54 55
54 59
55 56
55 57
57 58
59 60
59 61
61 62
61 68
62 63
63 65
63 64
65 67
65 66
68 69
68 72
69 71
69 70
73 156
73 74
74 155
74 75
75 154
75 76
76 77
77 78
78 153
78 79
79 152
79 80
80 81
81 82
82 151
82 83
83 150
83 84
84 149
84 85
85 86
86 87
87 148
87 88
88 147
88 89
89 144
89 90
90 141
90 91
91 138
91 92
92 137
92 93
93 136
93 94
94 135
94 95
95 130
95 96
96 129
96 97
97 98
98 99
99 100
100 101
101 126
101 102
102 125
102 103
103 124
103 104
104 123
104 105
105 122
105 106
106 117
106 107
107 109
107 108
109 116
109 110
110 112
110 111
112 115
112 113
113 159
113 114
117 119
117 118
119 120
119 121
126 127
126 128
130 132
130 131
132 134
132 133
138 139
138 140
141 142
141 143
144 145
144 146
157 183
157 182
157 160
158 161
158 184
158 159
159 160
161 162
161 169
162 164
162 163
164 165
164 168
165 166
165 167
167 197
169 170
169 175
170 171
170 172
172 174
172 173
175 176
175 177
177 178
177 179
179 180
179 181
184 186
184 185
186 187
186 190
187 188
187 189
190 191
190 194
191 192
191 193
194 195
194 196
197 198
199 200
200 201
203 204
204 206
205 206
206 208
207 208
208 210
209 210
210 212
211 212
212 214
213 214
214 216
215 216
216 217
218 219
219 221
220 221
221 222
223 224
224 226
225 226
226 227
228 229
229 231
230 231
231 233
232 233
233 235
234 235
235 237
236 237
237 239
238 239
239 241
240 241
241 243
242 243
243 245
244 245
245 246
247 248
248 250
249 250
250 252
251 252
252 253
255 256
256 257
259 260
260 262
261 262
262 263
264 265
265 267
266 267
267 269
268 269
269 271
270 271
271 273
272 273
273 275
274 275
275 276
277 278
278 279
281 282
282 284
283 284
284 285
287 288
288 289
291 292
292 294
293 294
294 295
297 298
298 299
304 305
305 306
308 309
309 310
312 313
313 315
314 315
315 317
316 317
317 319
318 319
319 321
320 321
321 322
323 324
324 326
325 326
326 328
327 328
328 330
329 330
330 332
331 332
332 334
333 334
334 336
335 336
336 337
338 339
339 341
340 341
341 342
344 345
345 346
348 349
349 351
350 351
351 353
352 353
353 355
354 355
355 356
357 358
358 360
359 360
360 362
361 362
362 364
363 364
364 366
365 366
366 367
370 371
371 372
375 376
376 378
377 378
378 380
379 380
380 381
384 394
384 392
385 386
386 389
386 387
388 389
389 390
390 391
393 394
394 395
